(set-info :smt-lib-version 2.6)
(set-logic QF_UFLRA)
(set-info :source |
MathSat group

|)
(set-info :category "random")
(set-info :status sat)
(declare-fun x0 () Real)
(declare-fun x1 () Real)
(declare-fun x2 () Real)
(declare-fun x3 () Real)
(declare-fun x4 () Real)
(declare-fun x5 () Real)
(declare-fun x6 () Real)
(declare-fun x7 () Real)
(declare-fun x8 () Real)
(declare-fun x9 () Real)
(declare-fun x10 () Real)
(declare-fun x11 () Real)
(declare-fun x12 () Real)
(declare-fun x13 () Real)
(declare-fun x14 () Real)
(declare-fun x15 () Real)
(declare-fun x16 () Real)
(declare-fun x17 () Real)
(declare-fun x18 () Real)
(declare-fun x19 () Real)
(declare-fun x20 () Real)
(declare-fun x21 () Real)
(declare-fun x22 () Real)
(declare-fun x23 () Real)
(declare-fun x24 () Real)
(declare-fun x25 () Real)
(declare-fun x26 () Real)
(declare-fun x27 () Real)
(declare-fun x28 () Real)
(declare-fun x29 () Real)
(declare-fun f0_1 (Real) Real)
(declare-fun f0_2 (Real Real) Real)
(declare-fun f0_3 (Real Real Real) Real)
(declare-fun f0_4 (Real Real Real Real) Real)
(declare-fun P0 () Bool)
(declare-fun P1 () Bool)
(declare-fun P2 () Bool)
(declare-fun P3 () Bool)
(declare-fun P4 () Bool)
(declare-fun P5 () Bool)
(declare-fun P6 () Bool)
(declare-fun P7 () Bool)
(declare-fun P8 () Bool)
(declare-fun P9 () Bool)
(declare-fun P10 () Bool)
(declare-fun P11 () Bool)
(declare-fun P12 () Bool)
(declare-fun P13 () Bool)
(declare-fun P14 () Bool)
(declare-fun P15 () Bool)
(declare-fun P16 () Bool)
(declare-fun P17 () Bool)
(declare-fun P18 () Bool)
(declare-fun P19 () Bool)
(declare-fun P20 () Bool)
(declare-fun P21 () Bool)
(declare-fun P22 () Bool)
(declare-fun P23 () Bool)
(declare-fun P24 () Bool)
(declare-fun P25 () Bool)
(declare-fun P26 () Bool)
(declare-fun P27 () Bool)
(declare-fun P28 () Bool)
(declare-fun P29 () Bool)
(assert (let ((?v_65 (* 4 x16)) (?v_118 (* 35 x28)) (?v_76 (<= (- (- (* 31 x21) (* 8 x11)) (* 29 x18)) 18)) (?v_12 (<= (- (+ (* 13 x23) (* 10 x17)) (* 22 x13)) 31)) (?v_74 (* 19 x17)) (?v_49 (distinct x22 (f0_2 x3 x1))) (?v_62 (distinct (f0_1 x14) (f0_2 x25 x8))) (?v_38 (= (f0_1 x24) x2)) (?v_8 (f0_1 x25))) (let ((?v_3 (distinct ?v_8 (f0_2 x13 x0))) (?v_1 (f0_1 x7))) (let ((?v_2 (distinct x26 ?v_1)) (?v_30 (= x14 (f0_2 x17 x4))) (?v_25 (distinct (f0_1 x23) x24)) (?v_54 (distinct (f0_2 x27 x20) x15)) (?v_27 (= x3 x26)) (?v_26 (f0_1 x3))) (let ((?v_153 (= ?v_26 x28)) (?v_13 (distinct x25 ?v_26)) (?v_32 (f0_1 x19))) (let ((?v_154 (distinct (f0_1 x27) ?v_32)) (?v_10 (= x4 (f0_2 x25 x16))) (?v_125 (distinct x11 x4)) (?v_29 (= (f0_1 x1) (f0_2 x16 x15))) (?v_151 (= x23 x4)) (?v_41 (distinct (f0_2 x8 x8) ?v_1)) (?v_68 (= x15 (f0_1 x15))) (?v_112 (distinct ?v_8 x7)) (?v_11 (f0_1 x28))) (let ((?v_20 (distinct ?v_11 x18)) (?v_122 (= x18 ?v_32)) (?v_47 (= x7 x29)) (?v_146 (= x19 x6)) (?v_69 (= x0 ?v_11)) (?v_17 (distinct x5 x28)) (?v_21 (distinct x19 ?v_1)) (?v_28 (= ?v_26 (f0_1 x0))) (?v_19 (= (f0_1 x20) (f0_2 x3 x17))) (?v_50 (= (f0_1 x13) ?v_32)) (?v_120 (= x10 (f0_2 x26 x24))) (?v_84 (not ?v_3)) (?v_93 (not ?v_30)) (?v_96 (not P22))) (let ((?v_7 (not ?v_21)) (?v_71 (not ?v_2)) (?v_95 (not ?v_25)) (?v_98 (not P26)) (?v_87 (not P27)) (?v_102 (not P13)) (?v_119 (not ?v_112)) (?v_100 (not ?v_38)) (?v_51 (not ?v_54)) (?v_83 (not P18)) (?v_52 (not ?v_20)) (?v_55 (not ?v_12)) (?v_16 (not ?v_29)) (?v_63 (not ?v_17)) (?v_45 (not P24)) (?v_82 (not ?v_19)) (?v_44 (not P10)) (?v_61 (not P2)) (?v_72 (not P1)) (?v_31 (not ?v_122)) (?v_34 (not P25)) (?v_36 (not P16)) (?v_156 (not ?v_146)) (?v_88 (not P6)) (?v_48 (not P15)) (?v_121 (not ?v_62)) (?v_90 (not P9)) (?v_80 (not ?v_28)) (?v_137 (not ?v_27)) (?v_66 (not P4)) (?v_115 (not P3)) (?v_133 (not ?v_47)) (?v_57 (not P8)) (?v_70 (not P17)) (?v_46 (not ?v_41)) (?v_129 (not P5)) (?v_79 (not P20)) (?v_92 (not P12)) (?v_108 (not ?v_151)) (?v_99 (not P14)) (?v_91 (not P28)) (?v_116 (not ?v_49)) (?v_56 (not ?v_153)) (?v_149 (not ?v_120)) (?v_97 (not P11)) (?v_148 (not ?v_154)) (?v_89 (not ?v_125)) (?v_103 (not ?v_13)) (?v_131 (not P19)) (?v_132 (not P29)) (?v_142 (not ?v_69))) (let ((?v_145 (or ?v_142 P23)) (?v_127 (not P21)) (?v_114 (not ?v_50)) (?v_158 (not P0)) (?v_143 (not P23)) (?v_123 (not ?v_68)) (?v_144 (not P7)) (?v_140 (not ?v_10)) (?v_6 (<= (+ (* 21 x3) (* 8 x22)) 5))) (let ((?v_73 (not ?v_6)) (?v_141 (= (- ?v_74 (* 37 x4)) 12))) (let ((?v_60 (not ?v_141)) (?v_138 (<= (+ ?v_118 (* 36 x29) (* 23 x25)) 10))) (let ((?v_155 (not ?v_138)) (?v_0 (distinct (+ (* 33 x25) (* 2 x6) (* 17 x8)) (- 21))) (?v_24 (<= (+ (* (- 38) x22) (* 22 x15) (* 16 x6)) 39))) (let ((?v_106 (not ?v_0)) (?v_22 (<= (+ (* (- 42) x0) (* 13 x13)) (- 20))) (?v_78 (<= (- (- (* (- 3) x9) (* 40 x16)) (* 12 x28)) 18))) (let ((?v_15 (not ?v_78)) (?v_9 (< (- (- 0 (* 6 x5)) (* 12 x9)) (- 38))) (?v_4 (<= (+ (- (* (- 41) x28) (* 21 x10)) ?v_118) 9)) (?v_18 (< (- (+ (* (- 35) x0) (* 9 x11)) (* 24 x29)) (- 42)))) (let ((?v_5 (not ?v_18)) (?v_101 (not ?v_4)) (?v_94 (< (- (+ (* 21 x25) (* 19 x2)) (* 41 x3)) (- 41)))) (let ((?v_136 (not ?v_94)) (?v_77 (< (+ (- (* 37 x9) (* 24 x2)) (* 39 x16)) (- 35))) (?v_53 (< (- (- (* (- 37) x10) (* 11 x13)) (* 34 x26)) 2))) (let ((?v_33 (not ?v_53)) (?v_58 (< (- (+ (* 8 x7) (* 42 x2)) (* 3 x2)) (- 24)))) (let ((?v_134 (not ?v_58)) (?v_14 (distinct (+ (- (* (- 10) x11) (* 12 x23)) (* 9 x18)) 26))) (let ((?v_40 (not ?v_14)) (?v_43 (< (- (- (* (- 42) x20) (* 36 x8)) (* 6 x3)) 44))) (let ((?v_59 (not ?v_43)) (?v_39 (not ?v_9)) (?v_35 (<= (- (+ (* 36 x13) ?v_65) (* 10 x10)) (- 20)))) (let ((?v_81 (not ?v_35)) (?v_152 (<= (+ (* (- 23) x18) (* 13 x12) (* 41 x8)) 10))) (let ((?v_124 (not ?v_152)) (?v_23 (<= (- (- (* 24 x23) (* 26 x3)) (* 26 x25)) (- 5)))) (let ((?v_75 (not ?v_23)) (?v_64 (= (+ (- (* 29 x21) (* 10 x7)) (* 20 x7)) (- 42))) (?v_111 (< (+ (- (* (- 1) x15) (* 27 x19)) (* 4 x6)) (- 31)))) (let ((?v_37 (not ?v_111)) (?v_42 (<= (- (+ (* (- 1) x24) (* 39 x4)) (* 27 x18)) (- 26)))) (let ((?v_104 (not ?v_42)) (?v_85 (= (+ (- (* (- 6) x25) (* 20 x29)) (* 18 x23)) 27)) (?v_67 (not ?v_22)) (?v_86 (< (- (* 37 x28) ?v_65) (- 44))) (?v_130 (<= (+ (- (* 26 x24) (* 25 x27)) ?v_74) (- 33)))) (let ((?v_110 (not ?v_130)) (?v_147 (not ?v_85)) (?v_157 (or ?v_35 ?v_84)) (?v_113 (not ?v_86)) (?v_105 (<= (+ (- (* (- 19) x15) (* 10 x1)) (* 27 x24)) 10))) (let ((?v_107 (not ?v_105)) (?v_128 (<= (- (+ (* (- 29) x8) (* 29 x17)) (* 7 x26)) 36))) (let ((?v_109 (not ?v_128)) (?v_139 (<= (+ (- (* (- 22) x25) (* 23 x24)) (* 12 x17)) (- 35)))) (let ((?v_117 (not ?v_139)) (?v_126 (not ?v_24)) (?v_150 (not ?v_77)) (?v_135 (not ?v_64))) (and (and (and (and (and (and (and (and (and (and (and (and (and (and (and (and (and (and (and (and (and (and (and (and (and (and (and (and (and (and (and (and (and (and (and (and (and (and (and (and (and (and (and (and (and (and (and (and (and (and (and (and (and (and (and (and (and (and (and (and (and (and (and (and (and (and (and (and (and (and (and (and (and (and (and (and (and (and (and (and (and (and (and (and (and (and (and (and (and (and (and (and (and (and (and (and (and (and (and (and (and (and (and (and (and (and (and (and (and (and (and (and (and (and (and (and (and (and (and (and (and (and (and (and (and (and (and (and (and (and (and (and (and (and (and (and (and (and (and (and (and (and (and (and (and (and (and (and (and (and (and (and (and (and (and (and (and (and (and (and (and (and (and (and (and (and (and (and (and (and (and (and (and (and (and (and (and (and (and (and (and (and (and (and (and (and (and (and (and (and (and (and (and (and (and (and (and (and (and (and (and (and (and (and (and (and (and (and (and (and (and (and (and (and (and (and (and (and (and (and (and (and (and (and (and (and (and (and (and (and (and (and (and (and (and (and (and (and (and (and (and (and (and (and (and (and (and (and (and (and (and (and (and (and (and (and (and (and (and (and (and (and (and (and (and (and (and (and (and (and (and (and (and (and (and (and (and (and (and (and (and (and (and (and (and (and (and (and (and (and (and (and (and (and (and (and (and (and (and (and (and (and (and (and (and (and (and (and (and (and (and (and (and (and (and (and (and (and (and (and (and (and (and (and (and (and (and (and (and (and (and (and (and (and (and (and (and (and (and (and (and (and (and (and (and (and (and (and (and (and (and (and (and (and (and (and (and (and (and (or (or ?v_0 P27) ?v_84) (or (or P13 P12) ?v_24)) (or (or ?v_93 ?v_96) P4)) (or (or ?v_106 ?v_2) ?v_7)) (or (or ?v_13 ?v_27) ?v_22)) (or (or ?v_6 ?v_15) ?v_9)) (or (or P7 ?v_71) P24)) (or (or ?v_4 ?v_10) ?v_3)) (or (or ?v_95 ?v_5) ?v_98)) (or (or ?v_87 P25) ?v_101)) (or (or P24 ?v_5) ?v_102)) (or (or ?v_73 ?v_7) ?v_136)) (or (or ?v_119 ?v_77) ?v_33)) (or (or ?v_100 ?v_51) ?v_83)) (or (or ?v_19 P9) ?v_12)) (or (or ?v_134 P15) ?v_52)) (or (or ?v_14 ?v_9) ?v_10)) (or (or P15 ?v_69) ?v_55)) (or (or ?v_13 ?v_40) ?v_15)) (or (or ?v_3 ?v_12) ?v_16)) (or (or ?v_63 ?v_59) P14)) (or (or ?v_16 ?v_17) ?v_39)) (or (or P11 ?v_45) ?v_49)) (or (or ?v_81 ?v_18) P23)) (or (or P29 ?v_82) ?v_44)) (or (or ?v_124 ?v_16) ?v_2)) (or (or ?v_23 ?v_20) ?v_21)) (or (or P18 ?v_61) ?v_20)) (or (or P17 ?v_72) ?v_22)) (or (or ?v_31 ?v_34) ?v_75)) (or (or ?v_36 ?v_156) ?v_10)) (or (or P12 ?v_24) ?v_25)) (or (or ?v_88 ?v_48) ?v_121)) (or (or ?v_90 P24) P15)) (or (or ?v_80 ?v_137) ?v_2)) (or (or ?v_28 P20) ?v_64)) (or (or ?v_29 ?v_30) ?v_68)) (or (or ?v_66 ?v_115) ?v_31)) (or (or ?v_50 ?v_37) ?v_41)) (or (or P25 ?v_33) ?v_12)) (or (or ?v_133 ?v_34) P3)) (or (or ?v_35 ?v_36) ?v_57)) (or (or ?v_42 ?v_37) ?v_38)) (or (or ?v_39 ?v_40) ?v_70)) (or (or P0 ?v_60) ?v_46)) (or (or ?v_104 ?v_43) P28)) (or (or ?v_129 ?v_25) ?v_79)) (or (or ?v_17 ?v_92) ?v_0)) (or (or ?v_108 ?v_99) ?v_44)) (or (or ?v_45 ?v_46) ?v_76)) (or (or ?v_22 P29) ?v_47)) (or (or ?v_2 ?v_91) ?v_48)) (or (or ?v_49 ?v_0) ?v_18)) (or (or ?v_116 ?v_50) P9)) (or (or ?v_51 ?v_46) ?v_40)) (or (or ?v_52 ?v_85) ?v_53)) (or (or ?v_56 P1) P25)) (or (or ?v_54 ?v_15) P29)) (or (or ?v_55 ?v_54) ?v_14)) (or (or ?v_56 P22) ?v_149)) (or (or ?v_4 ?v_67) ?v_57)) (or (or ?v_23 P13) P23)) (or (or ?v_97 ?v_58) ?v_59)) (or (or ?v_38 ?v_2) ?v_60)) (or (or ?v_61 ?v_62) P0)) (or (or ?v_19 ?v_63) P9)) (or (or ?v_3 ?v_64) ?v_86)) (or (or ?v_66 ?v_38) ?v_67)) (or (or ?v_68 ?v_2) ?v_64)) (or (or ?v_69 ?v_70) ?v_42)) (or (or ?v_46 ?v_148) P11)) (or (or ?v_41 ?v_71) P12)) (or (or ?v_24 ?v_60) P7)) (or (or ?v_72 ?v_73) P28)) (or (or ?v_55 ?v_110) P16)) (or (or P19 ?v_75) ?v_56)) (or (or ?v_12 P8) ?v_76)) (or (or ?v_33 ?v_77) ?v_49)) (or (or P2 ?v_78) ?v_79)) (or (or ?v_89 ?v_33) ?v_80)) (or (or ?v_61 ?v_103) ?v_81)) (or (or ?v_29 ?v_82) ?v_3)) (or (or ?v_83 P24) ?v_84)) (or (or ?v_4 ?v_6) ?v_131)) (or (or ?v_147 ?v_132) ?v_44)) (or ?v_157 ?v_113)) (or (or ?v_87 ?v_88) ?v_89)) (or ?v_145 ?v_72)) (or (or ?v_90 ?v_91) ?v_2)) (or (or P6 (not ?v_76)) ?v_92)) (or (or ?v_93 ?v_20) P19)) (or (or ?v_23 ?v_17) ?v_94)) (or (or ?v_40 P10) ?v_41)) (or (or ?v_64 P7) ?v_86)) (or (or ?v_58 ?v_107) ?v_53)) (or (or ?v_95 ?v_96) P8)) (or (or ?v_39 ?v_33) P20)) (or (or ?v_97 ?v_127) ?v_92)) (or (or ?v_73 ?v_98) ?v_43)) (or (or ?v_98 ?v_114) ?v_99)) (or (or ?v_40 ?v_4) ?v_80)) (or (or ?v_13 P12) P2)) (or (or P20 P17) ?v_100)) (or (or ?v_21 ?v_42) P8)) (or (or ?v_45 P18) ?v_101)) (or (or P6 ?v_2) ?v_15)) (or (or ?v_102 ?v_80) ?v_90)) (or (or ?v_103 ?v_104) P4)) (or (or ?v_71 P15) P11)) (or (or ?v_40 P24) P16)) (or (or ?v_109 P5) ?v_105)) (or (or ?v_158 ?v_104) ?v_50)) (or (or ?v_106 ?v_107) ?v_94)) (or (or ?v_12 ?v_108) ?v_109)) (or (or ?v_110 ?v_84) ?v_62)) (or (or ?v_84 ?v_111) ?v_70)) (or (or ?v_112 ?v_117) ?v_126)) (or (or ?v_24 ?v_97) ?v_17)) (or (or ?v_63 ?v_82) ?v_113)) (or (or ?v_27 P8) ?v_114)) (or (or ?v_71 ?v_50) ?v_115)) (or (or ?v_116 ?v_143) ?v_113)) (or (or ?v_59 ?v_31) ?v_99)) (or (or ?v_21 ?v_108) ?v_85)) (or (or ?v_117 P26) P8)) (or (or ?v_25 ?v_77) P8)) (or (or P12 ?v_29) ?v_113)) (or (or ?v_123 ?v_54) ?v_88)) (or (or ?v_109 ?v_54) ?v_37)) (or (or ?v_36 ?v_53) ?v_73)) (or (or ?v_94 ?v_34) ?v_77)) (or (or ?v_28 P3) ?v_138)) (or (or ?v_44 ?v_119) P24)) (or (or ?v_120 ?v_62) ?v_0)) (or (or ?v_4 ?v_121) P8)) (or (or ?v_122 ?v_111) P19)) (or (or ?v_121 ?v_123) ?v_76)) (or (or ?v_124 ?v_125) ?v_102)) (or (or ?v_35 ?v_108) ?v_15)) (or (or ?v_88 ?v_60) ?v_126)) (or (or ?v_20 ?v_115) ?v_86)) (or (or ?v_144 ?v_100) ?v_86)) (or (or ?v_6 ?v_2) P27)) (or (or P5 P12) P22)) (or (or ?v_93 ?v_68) ?v_76)) (or (or P12 P5) ?v_93)) (or (or ?v_66 ?v_21) ?v_127)) (or (or ?v_80 P15) ?v_76)) (or (or P8 ?v_52) P16)) (or (or ?v_87 ?v_119) ?v_54)) (or (or ?v_128 ?v_89) P15)) (or (or ?v_129 ?v_105) P11)) (or (or ?v_111 P28) ?v_58)) (or (or ?v_36 ?v_41) P0)) (or (or ?v_130 P7) ?v_131)) (or (or ?v_19 ?v_124) ?v_51)) (or (or ?v_75 ?v_55) ?v_86)) (or (or ?v_108 ?v_60) ?v_126)) (or (or P12 ?v_5) P22)) (or (or ?v_132 ?v_140) ?v_131)) (or (or P11 ?v_89) P7)) (or (or ?v_102 ?v_82) ?v_133)) (or (or ?v_102 P9) ?v_95)) (or (or ?v_131 ?v_134) ?v_150)) (or (or ?v_97 P12) ?v_135)) (or (or ?v_105 ?v_4) ?v_135)) (or (or ?v_130 ?v_125) P17)) (or (or ?v_110 ?v_38) ?v_82)) (or (or ?v_16 ?v_136) ?v_64)) (or (or ?v_52 ?v_105) P20)) (or (or ?v_117 ?v_124) ?v_63)) (or (or ?v_43 ?v_56) ?v_115)) (or (or ?v_90 ?v_137) ?v_28)) (or (or ?v_21 ?v_64) ?v_138)) (or (or ?v_139 ?v_33) P0)) (or (or ?v_92 P23) P21)) (or (or ?v_140 ?v_117) ?v_14)) (or (or P28 ?v_35) ?v_93)) (or (or ?v_107 ?v_38) ?v_104)) (or (or ?v_119 ?v_94) ?v_130)) (or (or ?v_25 P8) P2)) (or (or ?v_78 ?v_123) ?v_125)) (or (or ?v_21 ?v_12) ?v_22)) (or (or ?v_70 ?v_24) ?v_141)) (or (or ?v_123 ?v_111) ?v_12)) (or (or ?v_47 ?v_9) P14)) (or (or ?v_31 ?v_142) ?v_64)) (or (or ?v_35 ?v_143) P4)) (or (or ?v_98 P13) P28)) (or (or ?v_34 ?v_134) ?v_73)) (or (or P6 ?v_122) ?v_97)) (or (or ?v_121 ?v_144) ?v_66)) (or (or ?v_20 P2) ?v_115)) (or (or ?v_106 ?v_77) P7)) (or (or ?v_16 ?v_144) ?v_117)) (or (or ?v_60 ?v_124) ?v_41)) (or ?v_145 ?v_125)) (or (or ?v_110 P6) P1)) (or (or ?v_59 ?v_134) P16)) (or (or ?v_146 P29) ?v_113)) (or (or ?v_68 ?v_78) P28)) (or (or ?v_52 ?v_45) ?v_41)) (or (or ?v_17 ?v_41) ?v_137)) (or (or ?v_51 ?v_90) ?v_104)) (or (or P25 ?v_73) ?v_147)) (or (or ?v_29 ?v_15) ?v_51)) (or (or ?v_139 ?v_36) ?v_66)) (or (or ?v_124 ?v_134) P1)) (or (or ?v_57 ?v_102) ?v_64)) (or (or P28 ?v_147) P8)) (or (or ?v_7 P22) P0)) (or (or ?v_20 ?v_132) P19)) (or (or ?v_40 ?v_60) ?v_30)) (or (or ?v_146 P18) ?v_54)) (or (or ?v_129 ?v_34) ?v_148)) (or (or ?v_117 P6) ?v_155)) (or (or ?v_132 ?v_141) ?v_68)) (or (or ?v_110 ?v_33) ?v_5)) (or (or ?v_127 ?v_125) ?v_84)) (or (or ?v_4 P12) ?v_97)) (or (or ?v_115 ?v_33) ?v_45)) (or (or P28 P27) ?v_77)) (or (or ?v_134 ?v_63) ?v_86)) (or (or ?v_31 ?v_82) P20)) (or (or P5 ?v_111) ?v_98)) (or (or ?v_116 ?v_136) ?v_13)) (or (or ?v_0 ?v_95) ?v_116)) (or (or ?v_29 ?v_63) ?v_149)) (or (or ?v_119 P9) ?v_39)) (or (or ?v_79 ?v_93) P25)) (or (or ?v_45 ?v_21) ?v_119)) (or (or P6 ?v_72) P9)) (or (or P6 ?v_100) ?v_51)) (or (or ?v_54 ?v_13) ?v_55)) (or (or ?v_48 ?v_27) ?v_98)) (or (or ?v_7 ?v_108) ?v_116)) (or (or ?v_96 ?v_150) ?v_108)) (or (or ?v_13 ?v_151) ?v_10)) (or (or ?v_151 ?v_0) ?v_71)) (or (or ?v_17 ?v_82) P28)) (or (or ?v_80 ?v_41) ?v_126)) (or (or ?v_43 ?v_22) ?v_102)) (or (or ?v_125 ?v_131) P12)) (or (or ?v_71 P9) P20)) (or (or ?v_129 ?v_152) P19)) (or (or ?v_42 ?v_85) ?v_150)) (or (or ?v_122 ?v_18) P24)) (or (or P1 P8) ?v_116)) (or (or ?v_130 P21) P13)) (or (or ?v_109 P23) ?v_39)) (or (or ?v_139 P25) ?v_96)) (or (or ?v_52 ?v_142) ?v_106)) (or (or ?v_49 ?v_60) ?v_89)) (or (or ?v_107 ?v_104) ?v_31)) (or (or P23 ?v_39) ?v_76)) (or (or ?v_4 ?v_131) ?v_15)) (or (or ?v_19 ?v_115) ?v_102)) (or (or ?v_75 ?v_15) ?v_125)) (or (or ?v_12 ?v_135) ?v_27)) (or (or ?v_63 ?v_21) ?v_108)) (or (or ?v_36 ?v_40) ?v_77)) (or (or ?v_85 ?v_85) ?v_140)) (or (or ?v_78 ?v_61) ?v_142)) (or (or ?v_127 ?v_55) ?v_77)) (or (or P19 ?v_14) ?v_112)) (or (or ?v_64 ?v_34) ?v_153)) (or (or P22 ?v_44) ?v_123)) (or (or P10 ?v_36) P0)) (or (or P5 ?v_4) ?v_9)) (or (or ?v_154 ?v_111) ?v_105)) (or (or ?v_84 ?v_109) ?v_4)) (or (or ?v_85 ?v_35) ?v_7)) (or (or ?v_121 ?v_87) ?v_95)) (or (or ?v_147 ?v_116) ?v_75)) (or (or ?v_16 ?v_56) ?v_44)) (or (or ?v_101 ?v_68) ?v_115)) (or (or ?v_24 ?v_133) ?v_144)) (or (or ?v_10 P20) P1)) (or (or ?v_100 ?v_148) ?v_43)) (or (or ?v_0 ?v_126) ?v_22)) (or (or ?v_53 ?v_44) ?v_101)) (or (or ?v_31 ?v_105) ?v_86)) (or (or ?v_4 ?v_22) ?v_133)) (or (or P10 ?v_119) ?v_155)) (or (or ?v_87 ?v_126) ?v_120)) (or (or ?v_23 ?v_111) ?v_143)) (or (or ?v_105 ?v_152) ?v_100)) (or (or ?v_17 ?v_153) ?v_48)) (or (or ?v_125 ?v_78) ?v_20)) (or (or ?v_47 ?v_36) ?v_92)) (or (or ?v_140 ?v_29) ?v_125)) (or (or ?v_110 ?v_150) ?v_107)) (or (or ?v_23 ?v_83) ?v_97)) (or (or P18 ?v_68) ?v_155)) (or (or ?v_115 ?v_58) ?v_132)) (or (or ?v_84 P24) ?v_134)) (or (or ?v_127 ?v_50) ?v_126)) (or (or ?v_151 P28) P12)) (or (or ?v_34 ?v_40) ?v_121)) (or (or ?v_92 ?v_59) ?v_68)) (or (or ?v_100 ?v_46) P27)) (or (or P0 ?v_99) P3)) (or (or ?v_51 P3) ?v_146)) (or (or ?v_64 ?v_48) ?v_89)) (or (or ?v_88 ?v_35) ?v_126)) (or (or P15 ?v_17) ?v_58)) (or (or ?v_39 ?v_43) ?v_46)) (or (or P12 ?v_34) ?v_130)) (or (or ?v_154 ?v_7) ?v_73)) (or (or ?v_98 ?v_113) ?v_156)) (or (or ?v_51 P28) P21)) (or (or P23 ?v_51) ?v_88)) (or (or ?v_33 ?v_103) P15)) (or (or P5 ?v_112) ?v_152)) (or (or ?v_83 ?v_130) ?v_19)) (or (or ?v_116 ?v_68) ?v_130)) (or (or ?v_156 ?v_101) ?v_155)) (or (or ?v_105 ?v_129) ?v_51)) (or (or ?v_67 ?v_150) ?v_76)) (or (or ?v_37 P5) ?v_95)) (or (or ?v_90 ?v_34) ?v_27)) (or (or ?v_135 ?v_100) ?v_9)) (or (or ?v_153 P17) ?v_81)) (or (or P26 ?v_5) ?v_120)) (or (or P1 P23) P21)) (or (or P25 ?v_19) ?v_37)) (or (or ?v_115 ?v_42) P18)) (or (or ?v_156 ?v_120) ?v_64)) (or (or P2 ?v_97) ?v_151)) (or (or ?v_53 ?v_63) ?v_135)) (or (or ?v_6 ?v_13) P3)) (or (or ?v_12 ?v_123) ?v_27)) (or (or ?v_135 ?v_102) ?v_123)) (or (or ?v_21 ?v_128) ?v_56)) (or (or ?v_51 P7) ?v_21)) (or (or ?v_56 ?v_126) ?v_63)) (or (or P3 P5) ?v_40)) (or (or P20 ?v_125) P29)) (or (or ?v_94 ?v_98) ?v_33)) (or (or ?v_46 ?v_116) P5)) (or (or ?v_25 ?v_31) ?v_39)) (or (or ?v_3 ?v_101) ?v_116)) (or (or ?v_143 ?v_36) ?v_111)) (or (or ?v_60 ?v_117) ?v_152)) (or (or ?v_147 ?v_67) ?v_14)) (or ?v_157 ?v_49)) (or (or P26 ?v_0) ?v_126)) (or (or ?v_57 ?v_101) P11)) (or (or ?v_148 ?v_121) P1)) (or (or ?v_80 ?v_98) ?v_70)) (or (or ?v_27 ?v_7) ?v_59)) (or (or ?v_60 ?v_132) ?v_108)) (or (or ?v_85 ?v_38) ?v_144)) (or (or P8 ?v_125) ?v_119)) (or (or ?v_111 P24) ?v_94)) (or (or ?v_142 ?v_83) ?v_158)) (or (or ?v_108 ?v_116) ?v_101)) (or (or ?v_152 ?v_138) ?v_33)) (or (or ?v_16 P8) ?v_41)) (or (or ?v_19 ?v_137) ?v_6)))))))))))))))))))))))))))))))
(check-sat)
(exit)
